

******************************************************************************
This program contains Ipopt, a library for large-scale nonlinear optimization.
 Ipopt is released as open source code under the Eclipse Public License (EPL).
         For more information visit https://github.com/coin-or/Ipopt
******************************************************************************

This is Ipopt version 3.14.11, running with linear solver MUMPS 5.5.1.

Number of nonzeros in equality constraint Jacobian...:        0
Number of nonzeros in inequality constraint Jacobian.:        2
Number of nonzeros in Lagrangian Hessian.............:        3

Total number of variables............................:        2
                     variables with only lower bounds:        0
                variables with lower and upper bounds:        0
                     variables with only upper bounds:        0
Total number of equality constraints.................:        0
Total number of inequality constraints...............:        1
        inequality constraints with only lower bounds:        0
   inequality constraints with lower and upper bounds:        0
        inequality constraints with only upper bounds:        1

iter    objective    inf_pr   inf_du lg(mu)  ||d||  lg(rg) alpha_du alpha_pr  ls
   0  0.0000000e+00 0.00e+00 7.00e+00  -1.0 0.00e+00    -  0.00e+00 0.00e+00   0
   1 -1.8500000e+01 0.00e+00 7.97e+00  -1.0 2.00e+00    -  9.94e-01 1.00e+00f  1
   2 -4.0844560e+01 2.93e+01 6.74e+00  -1.0 1.88e+02    -  1.00e+00 1.32e-01f  1
   3 -3.2143732e+01 4.89e+00 2.87e+00  -1.0 1.16e+00    -  1.00e+00 1.00e+00h  1
   4 -3.0100719e+01 2.05e-01 1.55e-01  -1.0 4.81e-01    -  1.00e+00 1.00e+00h  1
   5 -2.9981345e+01 0.00e+00 2.48e-03  -1.7 2.40e-02    -  1.00e+00 1.00e+00h  1
   6 -2.9999844e+01 0.00e+00 5.32e-06  -3.8 3.89e-02    -  1.00e+00 1.00e+00h  1
   7 -2.9999998e+01 0.00e+00 4.15e-10  -5.7 3.25e-04    -  1.00e+00 1.00e+00h  1
   8 -3.0000000e+01 0.00e+00 6.04e-14  -8.6 3.69e-06    -  1.00e+00 1.00e+00h  1

Number of Iterations....: 8

                                   (scaled)                 (unscaled)
Objective...............:  -3.0000000122494001e+01   -3.0000000122494001e+01
Dual infeasibility......:   6.0396132539608516e-14    6.0396132539608516e-14
Constraint violation....:   0.0000000000000000e+00    0.0000000000000000e+00
Variable bound violation:   0.0000000000000000e+00    0.0000000000000000e+00
Complementarity.........:   2.5060700030916188e-09    2.5060700030916188e-09
Overall NLP error.......:   2.5060700030916188e-09    2.5060700030916188e-09


Number of objective function evaluations             = 9
Number of objective gradient evaluations             = 9
Number of equality constraint evaluations            = 0
Number of inequality constraint evaluations          = 9
Number of equality constraint Jacobian evaluations   = 0
Number of inequality constraint Jacobian evaluations = 9
Number of Lagrangian Hessian evaluations             = 8
Total seconds in IPOPT                               = 0.006

EXIT: Optimal Solution Found.
 
Ipopt 3.14.11: Optimal Solution Found
